(set-logic QF_LRA)
(declare-fun fluent_started_i0_t0@0 () Bool)
(declare-fun fluent_started_i0_t1@0 () Bool)
(declare-fun fluent_started_i0_t2@0 () Bool)
(declare-fun fluent_started_i0_t3@0 () Bool)
(declare-fun fluent_started_i0_t4@0 () Bool)
(declare-fun fluent_started_i0_t5@0 () Bool)
(declare-fun fluent_started_i0_t6@0 () Bool)
(declare-fun fluent_started_i0_t7@0 () Bool)
(declare-fun fluent_ready_i0_t0@0 () Bool)
(declare-fun fluent_ready_i0_t1@0 () Bool)
(declare-fun fluent_ready_i0_t2@0 () Bool)
(declare-fun fluent_ready_i0_t3@0 () Bool)
(declare-fun fluent_ready_i0_t4@0 () Bool)
(declare-fun fluent_ready_i0_t5@0 () Bool)
(declare-fun fluent_ready_i0_t6@0 () Bool)
(declare-fun fluent_ready_i0_t7@0 () Bool)
(declare-fun fluent_busy_@0 () Bool)
(declare-fun fluent_treated_i0_t0@0 () Bool)
(declare-fun fluent_treated_i0_t1@0 () Bool)
(declare-fun fluent_treated_i0_t2@0 () Bool)
(declare-fun fluent_treated_i0_t3@0 () Bool)
(declare-fun fluent_treated_i0_t4@0 () Bool)
(declare-fun fluent_treated_i0_t5@0 () Bool)
(declare-fun fluent_treated_i0_t6@0 () Bool)
(declare-fun fluent_treated_i0_t7@0 () Bool)
(declare-fun fluent_counter_t0@1 () Real)
(declare-fun fluent_counter_t0@0 () Real)
(declare-fun fluent_counter_t1@1 () Real)
(declare-fun fluent_counter_t1@0 () Real)
(declare-fun fluent_counter_t2@1 () Real)
(declare-fun fluent_counter_t2@0 () Real)
(declare-fun fluent_counter_t3@1 () Real)
(declare-fun fluent_counter_t3@0 () Real)
(declare-fun fluent_counter_t4@1 () Real)
(declare-fun fluent_counter_t4@0 () Real)
(declare-fun fluent_counter_t5@0 () Real)
(declare-fun fluent_counter_t5@1 () Real)
(declare-fun fluent_counter_t6@0 () Real)
(declare-fun fluent_counter_t6@1 () Real)
(declare-fun fluent_counter_t7@0 () Real)
(declare-fun fluent_counter_t7@1 () Real)
(declare-fun fluent_busy_@1 () Bool)
(declare-fun dur_make_treatment@1 () Real)
(declare-fun fluent_started_i0_t0@1 () Bool)
(declare-fun fluent_started_i0_t1@1 () Bool)
(declare-fun fluent_started_i0_t2@1 () Bool)
(declare-fun t@1 () Real)
(declare-fun fluent_started_i0_t3@1 () Bool)
(declare-fun fluent_started_i0_t4@1 () Bool)
(declare-fun fluent_started_i0_t5@1 () Bool)
(declare-fun fluent_started_i0_t6@1 () Bool)
(declare-fun parameter_make_treatment_t@1 () Real)
(declare-fun fluent_started_i0_t7@1 () Bool)
(declare-fun fluent_treated_i0_t0@1 () Bool)
(declare-fun fluent_treated_i0_t1@1 () Bool)
(declare-fun parameter_make_treatment_i@1 () Real)
(declare-fun fluent_treated_i0_t2@1 () Bool)
(declare-fun fluent_treated_i0_t3@1 () Bool)
(declare-fun fluent_treated_i0_t4@1 () Bool)
(declare-fun fluent_treated_i0_t5@1 () Bool)
(declare-fun fluent_treated_i0_t6@1 () Bool)
(declare-fun fluent_treated_i0_t7@1 () Bool)
(declare-fun fluent_ready_i0_t0@1 () Bool)
(declare-fun fluent_ready_i0_t1@1 () Bool)
(declare-fun fluent_ready_i0_t2@1 () Bool)
(declare-fun fluent_ready_i0_t3@1 () Bool)
(declare-fun fluent_ready_i0_t4@1 () Bool)
(declare-fun fluent_ready_i0_t5@1 () Bool)
(declare-fun fluent_ready_i0_t6@1 () Bool)
(declare-fun parameter_make_treatment_next@1 () Real)
(declare-fun fluent_ready_i0_t7@1 () Bool)
(declare-fun act_make_treatment@1 () Bool)
(assert (let ((.def_0 (= parameter_make_treatment_i@1 0.0))) (let ((.def_1 (= parameter_make_treatment_t@1 8.0))) (let ((.def_2 (= parameter_make_treatment_t@1 7.0))) (let ((.def_3 (= parameter_make_treatment_t@1 6.0))) (let ((.def_4 (= parameter_make_treatment_t@1 5.0))) (let ((.def_5 (= parameter_make_treatment_t@1 4.0))) (let ((.def_6 (= parameter_make_treatment_t@1 3.0))) (let ((.def_7 (= parameter_make_treatment_t@1 2.0))) (let ((.def_8 (= parameter_make_treatment_t@1 1.0))) (let ((.def_9 (or .def_8 .def_7 .def_6 .def_5 .def_4 .def_3 .def_2 .def_1))) (let ((.def_10 (<= fluent_counter_t7@1 31.0))) (let ((.def_11 (<= 0.0 fluent_counter_t7@1))) (let ((.def_12 (<= fluent_counter_t6@1 31.0))) (let ((.def_13 (<= 0.0 fluent_counter_t6@1))) (let ((.def_14 (<= fluent_counter_t5@1 31.0))) (let ((.def_15 (<= 0.0 fluent_counter_t5@1))) (let ((.def_16 (<= fluent_counter_t4@1 31.0))) (let ((.def_17 (<= 0.0 fluent_counter_t4@1))) (let ((.def_18 (<= fluent_counter_t3@1 31.0))) (let ((.def_19 (<= 0.0 fluent_counter_t3@1))) (let ((.def_20 (<= fluent_counter_t2@1 31.0))) (let ((.def_21 (<= 0.0 fluent_counter_t2@1))) (let ((.def_22 (<= fluent_counter_t1@1 31.0))) (let ((.def_23 (<= 0.0 fluent_counter_t1@1))) (let ((.def_24 (<= fluent_counter_t0@1 31.0))) (let ((.def_25 (<= 0.0 fluent_counter_t0@1))) (let ((.def_26 (= parameter_make_treatment_next@1 8.0))) (let ((.def_27 (= parameter_make_treatment_next@1 7.0))) (let ((.def_28 (= parameter_make_treatment_next@1 6.0))) (let ((.def_29 (= parameter_make_treatment_next@1 5.0))) (let ((.def_30 (= parameter_make_treatment_next@1 4.0))) (let ((.def_31 (= parameter_make_treatment_next@1 3.0))) (let ((.def_32 (= parameter_make_treatment_next@1 2.0))) (let ((.def_33 (= parameter_make_treatment_next@1 1.0))) (let ((.def_34 (or .def_33 .def_32 .def_31 .def_30 .def_29 .def_28 .def_27 .def_26))) (let ((.def_35 (and act_make_treatment@1 true .def_1))) (let ((.def_36 (= fluent_counter_t7@0 fluent_counter_t7@1))) (let ((.def_37 (not .def_36))) (let ((.def_38 (=> .def_37 .def_35))) (let ((.def_39 (and act_make_treatment@1 true .def_2))) (let ((.def_40 (= fluent_counter_t6@0 fluent_counter_t6@1))) (let ((.def_41 (not .def_40))) (let ((.def_42 (=> .def_41 .def_39))) (let ((.def_43 (and act_make_treatment@1 true .def_3))) (let ((.def_44 (= fluent_counter_t5@0 fluent_counter_t5@1))) (let ((.def_45 (not .def_44))) (let ((.def_46 (=> .def_45 .def_43))) (let ((.def_47 (and act_make_treatment@1 true .def_4))) (let ((.def_48 (= fluent_counter_t4@0 fluent_counter_t4@1))) (let ((.def_49 (not .def_48))) (let ((.def_50 (=> .def_49 .def_47))) (let ((.def_51 (and act_make_treatment@1 true .def_5))) (let ((.def_52 (= fluent_counter_t3@0 fluent_counter_t3@1))) (let ((.def_53 (not .def_52))) (let ((.def_54 (=> .def_53 .def_51))) (let ((.def_55 (and act_make_treatment@1 true .def_6))) (let ((.def_56 (= fluent_counter_t2@0 fluent_counter_t2@1))) (let ((.def_57 (not .def_56))) (let ((.def_58 (=> .def_57 .def_55))) (let ((.def_59 (and act_make_treatment@1 true .def_7))) (let ((.def_60 (= fluent_counter_t1@0 fluent_counter_t1@1))) (let ((.def_61 (not .def_60))) (let ((.def_62 (=> .def_61 .def_59))) (let ((.def_63 (and act_make_treatment@1 true .def_8))) (let ((.def_64 (= fluent_counter_t0@0 fluent_counter_t0@1))) (let ((.def_65 (not .def_64))) (let ((.def_66 (=> .def_65 .def_63))) (let ((.def_67 (+ t@1 10.0))) (let ((.def_68 (= t@1 .def_67))) (let ((.def_69 (and act_make_treatment@1 true .def_68 .def_0 .def_26))) (let ((.def_70 (= fluent_ready_i0_t7@0 fluent_ready_i0_t7@1))) (let ((.def_71 (not .def_70))) (let ((.def_72 (=> .def_71 .def_69))) (let ((.def_73 (and act_make_treatment@1 true .def_68 .def_0 .def_27))) (let ((.def_74 (= fluent_ready_i0_t6@0 fluent_ready_i0_t6@1))) (let ((.def_75 (not .def_74))) (let ((.def_76 (=> .def_75 .def_73))) (let ((.def_77 (and act_make_treatment@1 true .def_68 .def_0 .def_28))) (let ((.def_78 (= fluent_ready_i0_t5@0 fluent_ready_i0_t5@1))) (let ((.def_79 (not .def_78))) (let ((.def_80 (=> .def_79 .def_77))) (let ((.def_81 (and act_make_treatment@1 true .def_68 .def_0 .def_29))) (let ((.def_82 (= fluent_ready_i0_t4@0 fluent_ready_i0_t4@1))) (let ((.def_83 (not .def_82))) (let ((.def_84 (=> .def_83 .def_81))) (let ((.def_85 (and act_make_treatment@1 true .def_68 .def_0 .def_30))) (let ((.def_86 (= fluent_ready_i0_t3@0 fluent_ready_i0_t3@1))) (let ((.def_87 (not .def_86))) (let ((.def_88 (=> .def_87 .def_85))) (let ((.def_89 (and act_make_treatment@1 true .def_68 .def_0 .def_31))) (let ((.def_90 (= fluent_ready_i0_t2@0 fluent_ready_i0_t2@1))) (let ((.def_91 (not .def_90))) (let ((.def_92 (=> .def_91 .def_89))) (let ((.def_93 (and act_make_treatment@1 true .def_68 .def_0 .def_32))) (let ((.def_94 (= fluent_ready_i0_t1@0 fluent_ready_i0_t1@1))) (let ((.def_95 (not .def_94))) (let ((.def_96 (=> .def_95 .def_93))) (let ((.def_97 (and act_make_treatment@1 true .def_68 .def_0 .def_33))) (let ((.def_98 (= fluent_ready_i0_t0@0 fluent_ready_i0_t0@1))) (let ((.def_99 (not .def_98))) (let ((.def_100 (=> .def_99 .def_97))) (let ((.def_101 (and act_make_treatment@1 true .def_0 .def_1))) (let ((.def_102 (= fluent_started_i0_t7@0 fluent_started_i0_t7@1))) (let ((.def_103 (not .def_102))) (let ((.def_104 (=> .def_103 .def_101))) (let ((.def_105 (and act_make_treatment@1 true .def_0 .def_2))) (let ((.def_106 (= fluent_started_i0_t6@0 fluent_started_i0_t6@1))) (let ((.def_107 (not .def_106))) (let ((.def_108 (=> .def_107 .def_105))) (let ((.def_109 (and act_make_treatment@1 true .def_0 .def_3))) (let ((.def_110 (= fluent_started_i0_t5@0 fluent_started_i0_t5@1))) (let ((.def_111 (not .def_110))) (let ((.def_112 (=> .def_111 .def_109))) (let ((.def_113 (and act_make_treatment@1 true .def_0 .def_4))) (let ((.def_114 (= fluent_started_i0_t4@0 fluent_started_i0_t4@1))) (let ((.def_115 (not .def_114))) (let ((.def_116 (=> .def_115 .def_113))) (let ((.def_117 (and act_make_treatment@1 true .def_0 .def_5))) (let ((.def_118 (= fluent_started_i0_t3@0 fluent_started_i0_t3@1))) (let ((.def_119 (not .def_118))) (let ((.def_120 (=> .def_119 .def_117))) (let ((.def_121 (and act_make_treatment@1 true .def_0 .def_6))) (let ((.def_122 (= fluent_started_i0_t2@0 fluent_started_i0_t2@1))) (let ((.def_123 (not .def_122))) (let ((.def_124 (=> .def_123 .def_121))) (let ((.def_125 (and act_make_treatment@1 true .def_0 .def_7))) (let ((.def_126 (= fluent_started_i0_t1@0 fluent_started_i0_t1@1))) (let ((.def_127 (not .def_126))) (let ((.def_128 (=> .def_127 .def_125))) (let ((.def_129 (and act_make_treatment@1 true .def_0 .def_8))) (let ((.def_130 (= fluent_started_i0_t0@0 fluent_started_i0_t0@1))) (let ((.def_131 (not .def_130))) (let ((.def_132 (=> .def_131 .def_129))) (let ((.def_133 (+ t@1 4.0))) (let ((.def_134 (= t@1 .def_133))) (let ((.def_135 (and act_make_treatment@1 true .def_134 .def_0 .def_1))) (let ((.def_136 (= fluent_treated_i0_t7@0 fluent_treated_i0_t7@1))) (let ((.def_137 (not .def_136))) (let ((.def_138 (=> .def_137 .def_135))) (let ((.def_139 (and act_make_treatment@1 true .def_134 .def_0 .def_2))) (let ((.def_140 (= fluent_treated_i0_t6@0 fluent_treated_i0_t6@1))) (let ((.def_141 (not .def_140))) (let ((.def_142 (=> .def_141 .def_139))) (let ((.def_143 (and act_make_treatment@1 true .def_134 .def_0 .def_3))) (let ((.def_144 (= fluent_treated_i0_t5@0 fluent_treated_i0_t5@1))) (let ((.def_145 (not .def_144))) (let ((.def_146 (=> .def_145 .def_143))) (let ((.def_147 (and act_make_treatment@1 true .def_134 .def_0 .def_4))) (let ((.def_148 (= fluent_treated_i0_t4@0 fluent_treated_i0_t4@1))) (let ((.def_149 (not .def_148))) (let ((.def_150 (=> .def_149 .def_147))) (let ((.def_151 (and act_make_treatment@1 true .def_134 .def_0 .def_5))) (let ((.def_152 (= fluent_treated_i0_t3@0 fluent_treated_i0_t3@1))) (let ((.def_153 (not .def_152))) (let ((.def_154 (=> .def_153 .def_151))) (let ((.def_155 (and act_make_treatment@1 true .def_134 .def_0 .def_6))) (let ((.def_156 (= fluent_treated_i0_t2@0 fluent_treated_i0_t2@1))) (let ((.def_157 (not .def_156))) (let ((.def_158 (=> .def_157 .def_155))) (let ((.def_159 (and act_make_treatment@1 true .def_134 .def_0 .def_7))) (let ((.def_160 (= fluent_treated_i0_t1@0 fluent_treated_i0_t1@1))) (let ((.def_161 (not .def_160))) (let ((.def_162 (=> .def_161 .def_159))) (let ((.def_163 (and act_make_treatment@1 true .def_134 .def_0 .def_8))) (let ((.def_164 (= fluent_treated_i0_t0@0 fluent_treated_i0_t0@1))) (let ((.def_165 (not .def_164))) (let ((.def_166 (=> .def_165 .def_163))) (let ((.def_167 (and act_make_treatment@1 true .def_134))) (let ((.def_168 (and act_make_treatment@1 true))) (let ((.def_169 (and .def_168 .def_167))) (let ((.def_170 (not .def_169))) (let ((.def_171 (or .def_168 .def_167))) (let ((.def_172 (= fluent_busy_@0 fluent_busy_@1))) (let ((.def_173 (not .def_172))) (let ((.def_174 (=> .def_173 .def_171))) (let ((.def_175 (and .def_174 .def_170 .def_166 .def_162 .def_158 .def_154 .def_150 .def_146 .def_142 .def_138 .def_132 .def_128 .def_124 .def_120 .def_116 .def_112 .def_108 .def_104 .def_100 .def_96 .def_92 .def_88 .def_84 .def_80 .def_76 .def_72 .def_66 .def_62 .def_58 .def_54 .def_50 .def_46 .def_42 .def_38))) (let ((.def_176 (<= 0.0 t@1))) (let ((.def_177 (and .def_0 .def_32))) (let ((.def_178 (ite .def_177 fluent_ready_i0_t1@1 fluent_ready_i0_t0@1))) (let ((.def_179 (and .def_0 .def_31))) (let ((.def_180 (ite .def_179 fluent_ready_i0_t2@1 .def_178))) (let ((.def_181 (and .def_0 .def_30))) (let ((.def_182 (ite .def_181 fluent_ready_i0_t3@1 .def_180))) (let ((.def_183 (and .def_0 .def_29))) (let ((.def_184 (ite .def_183 fluent_ready_i0_t4@1 .def_182))) (let ((.def_185 (and .def_0 .def_28))) (let ((.def_186 (ite .def_185 fluent_ready_i0_t5@1 .def_184))) (let ((.def_187 (and .def_0 .def_27))) (let ((.def_188 (ite .def_187 fluent_ready_i0_t6@1 .def_186))) (let ((.def_189 (and .def_0 .def_26))) (let ((.def_190 (ite .def_189 fluent_ready_i0_t7@1 .def_188))) (let ((.def_191 (= .def_190 true))) (let ((.def_192 (=> true .def_191))) (let ((.def_193 (and .def_68 .def_192))) (let ((.def_194 (= fluent_busy_@1 false))) (let ((.def_195 (=> true .def_194))) (let ((.def_196 (and .def_0 .def_7))) (let ((.def_197 (ite .def_196 fluent_treated_i0_t1@1 fluent_treated_i0_t0@1))) (let ((.def_198 (and .def_0 .def_6))) (let ((.def_199 (ite .def_198 fluent_treated_i0_t2@1 .def_197))) (let ((.def_200 (and .def_0 .def_5))) (let ((.def_201 (ite .def_200 fluent_treated_i0_t3@1 .def_199))) (let ((.def_202 (and .def_0 .def_4))) (let ((.def_203 (ite .def_202 fluent_treated_i0_t4@1 .def_201))) (let ((.def_204 (and .def_0 .def_3))) (let ((.def_205 (ite .def_204 fluent_treated_i0_t5@1 .def_203))) (let ((.def_206 (and .def_0 .def_2))) (let ((.def_207 (ite .def_206 fluent_treated_i0_t6@1 .def_205))) (let ((.def_208 (and .def_0 .def_1))) (let ((.def_209 (ite .def_208 fluent_treated_i0_t7@1 .def_207))) (let ((.def_210 (= .def_209 true))) (let ((.def_211 (=> true .def_210))) (let ((.def_212 (and .def_134 .def_211 .def_195))) (let ((.def_213 (ite .def_196 fluent_started_i0_t1@1 fluent_started_i0_t0@1))) (let ((.def_214 (ite .def_198 fluent_started_i0_t2@1 .def_213))) (let ((.def_215 (ite .def_200 fluent_started_i0_t3@1 .def_214))) (let ((.def_216 (ite .def_202 fluent_started_i0_t4@1 .def_215))) (let ((.def_217 (ite .def_204 fluent_started_i0_t5@1 .def_216))) (let ((.def_218 (ite .def_206 fluent_started_i0_t6@1 .def_217))) (let ((.def_219 (ite .def_208 fluent_started_i0_t7@1 .def_218))) (let ((.def_220 (= .def_219 true))) (let ((.def_221 (=> true .def_220))) (let ((.def_222 (= fluent_busy_@1 true))) (let ((.def_223 (=> true .def_222))) (let ((.def_224 (ite .def_7 fluent_counter_t1@0 fluent_counter_t0@0))) (let ((.def_225 (ite .def_6 fluent_counter_t2@0 .def_224))) (let ((.def_226 (ite .def_5 fluent_counter_t3@0 .def_225))) (let ((.def_227 (ite .def_4 fluent_counter_t4@0 .def_226))) (let ((.def_228 (ite .def_3 fluent_counter_t5@0 .def_227))) (let ((.def_229 (ite .def_2 fluent_counter_t6@0 .def_228))) (let ((.def_230 (ite .def_1 fluent_counter_t7@0 .def_229))) (let ((.def_231 (+ .def_230 1.0))) (let ((.def_232 (ite .def_7 fluent_counter_t1@1 fluent_counter_t0@1))) (let ((.def_233 (ite .def_6 fluent_counter_t2@1 .def_232))) (let ((.def_234 (ite .def_5 fluent_counter_t3@1 .def_233))) (let ((.def_235 (ite .def_4 fluent_counter_t4@1 .def_234))) (let ((.def_236 (ite .def_3 fluent_counter_t5@1 .def_235))) (let ((.def_237 (ite .def_2 fluent_counter_t6@1 .def_236))) (let ((.def_238 (ite .def_1 fluent_counter_t7@1 .def_237))) (let ((.def_239 (= .def_238 .def_231))) (let ((.def_240 (=> true .def_239))) (let ((.def_241 (= t@1 t@1))) (let ((.def_242 (and .def_241 .def_240 .def_223 .def_221))) (let ((.def_243 (ite .def_177 fluent_started_i0_t1@0 fluent_started_i0_t0@0))) (let ((.def_244 (ite .def_179 fluent_started_i0_t2@0 .def_243))) (let ((.def_245 (ite .def_181 fluent_started_i0_t3@0 .def_244))) (let ((.def_246 (ite .def_183 fluent_started_i0_t4@0 .def_245))) (let ((.def_247 (ite .def_185 fluent_started_i0_t5@0 .def_246))) (let ((.def_248 (ite .def_187 fluent_started_i0_t6@0 .def_247))) (let ((.def_249 (ite .def_189 fluent_started_i0_t7@0 .def_248))) (let ((.def_250 (+ t@1 dur_make_treatment@1))) (let ((.def_251 (<= .def_250 t@1))) (let ((.def_252 (< (- 1.0) .def_250))) (let ((.def_253 (and .def_252 .def_251))) (let ((.def_254 (=> .def_253 .def_249))) (let ((.def_255 (ite .def_196 fluent_ready_i0_t1@0 fluent_ready_i0_t0@0))) (let ((.def_256 (ite .def_198 fluent_ready_i0_t2@0 .def_255))) (let ((.def_257 (ite .def_200 fluent_ready_i0_t3@0 .def_256))) (let ((.def_258 (ite .def_202 fluent_ready_i0_t4@0 .def_257))) (let ((.def_259 (ite .def_204 fluent_ready_i0_t5@0 .def_258))) (let ((.def_260 (ite .def_206 fluent_ready_i0_t6@0 .def_259))) (let ((.def_261 (ite .def_208 fluent_ready_i0_t7@0 .def_260))) (let ((.def_262 (ite .def_196 fluent_started_i0_t1@0 fluent_started_i0_t0@0))) (let ((.def_263 (ite .def_198 fluent_started_i0_t2@0 .def_262))) (let ((.def_264 (ite .def_200 fluent_started_i0_t3@0 .def_263))) (let ((.def_265 (ite .def_202 fluent_started_i0_t4@0 .def_264))) (let ((.def_266 (ite .def_204 fluent_started_i0_t5@0 .def_265))) (let ((.def_267 (ite .def_206 fluent_started_i0_t6@0 .def_266))) (let ((.def_268 (ite .def_208 fluent_started_i0_t7@0 .def_267))) (let ((.def_269 (not .def_268))) (let ((.def_270 (ite .def_196 fluent_treated_i0_t1@0 fluent_treated_i0_t0@0))) (let ((.def_271 (ite .def_198 fluent_treated_i0_t2@0 .def_270))) (let ((.def_272 (ite .def_200 fluent_treated_i0_t3@0 .def_271))) (let ((.def_273 (ite .def_202 fluent_treated_i0_t4@0 .def_272))) (let ((.def_274 (ite .def_204 fluent_treated_i0_t5@0 .def_273))) (let ((.def_275 (ite .def_206 fluent_treated_i0_t6@0 .def_274))) (let ((.def_276 (ite .def_208 fluent_treated_i0_t7@0 .def_275))) (let ((.def_277 (not .def_276))) (let ((.def_278 (not fluent_busy_@0))) (let ((.def_279 (and .def_7 .def_33))) (let ((.def_280 (ite .def_279 false false))) (let ((.def_281 (and .def_6 .def_33))) (let ((.def_282 (ite .def_281 false .def_280))) (let ((.def_283 (and .def_5 .def_33))) (let ((.def_284 (ite .def_283 false .def_282))) (let ((.def_285 (and .def_4 .def_33))) (let ((.def_286 (ite .def_285 false .def_284))) (let ((.def_287 (and .def_3 .def_33))) (let ((.def_288 (ite .def_287 false .def_286))) (let ((.def_289 (and .def_2 .def_33))) (let ((.def_290 (ite .def_289 false .def_288))) (let ((.def_291 (and .def_1 .def_33))) (let ((.def_292 (ite .def_291 false .def_290))) (let ((.def_293 (and .def_8 .def_32))) (let ((.def_294 (ite .def_293 true .def_292))) (let ((.def_295 (and .def_7 .def_32))) (let ((.def_296 (ite .def_295 false .def_294))) (let ((.def_297 (and .def_6 .def_32))) (let ((.def_298 (ite .def_297 false .def_296))) (let ((.def_299 (and .def_5 .def_32))) (let ((.def_300 (ite .def_299 false .def_298))) (let ((.def_301 (and .def_4 .def_32))) (let ((.def_302 (ite .def_301 false .def_300))) (let ((.def_303 (and .def_3 .def_32))) (let ((.def_304 (ite .def_303 false .def_302))) (let ((.def_305 (and .def_2 .def_32))) (let ((.def_306 (ite .def_305 false .def_304))) (let ((.def_307 (and .def_1 .def_32))) (let ((.def_308 (ite .def_307 false .def_306))) (let ((.def_309 (and .def_8 .def_31))) (let ((.def_310 (ite .def_309 false .def_308))) (let ((.def_311 (and .def_7 .def_31))) (let ((.def_312 (ite .def_311 true .def_310))) (let ((.def_313 (and .def_6 .def_31))) (let ((.def_314 (ite .def_313 false .def_312))) (let ((.def_315 (and .def_5 .def_31))) (let ((.def_316 (ite .def_315 false .def_314))) (let ((.def_317 (and .def_4 .def_31))) (let ((.def_318 (ite .def_317 false .def_316))) (let ((.def_319 (and .def_3 .def_31))) (let ((.def_320 (ite .def_319 false .def_318))) (let ((.def_321 (and .def_2 .def_31))) (let ((.def_322 (ite .def_321 false .def_320))) (let ((.def_323 (and .def_1 .def_31))) (let ((.def_324 (ite .def_323 false .def_322))) (let ((.def_325 (and .def_8 .def_30))) (let ((.def_326 (ite .def_325 false .def_324))) (let ((.def_327 (and .def_7 .def_30))) (let ((.def_328 (ite .def_327 false .def_326))) (let ((.def_329 (and .def_6 .def_30))) (let ((.def_330 (ite .def_329 true .def_328))) (let ((.def_331 (and .def_5 .def_30))) (let ((.def_332 (ite .def_331 false .def_330))) (let ((.def_333 (and .def_4 .def_30))) (let ((.def_334 (ite .def_333 false .def_332))) (let ((.def_335 (and .def_3 .def_30))) (let ((.def_336 (ite .def_335 false .def_334))) (let ((.def_337 (and .def_2 .def_30))) (let ((.def_338 (ite .def_337 false .def_336))) (let ((.def_339 (and .def_1 .def_30))) (let ((.def_340 (ite .def_339 false .def_338))) (let ((.def_341 (and .def_8 .def_29))) (let ((.def_342 (ite .def_341 false .def_340))) (let ((.def_343 (and .def_7 .def_29))) (let ((.def_344 (ite .def_343 false .def_342))) (let ((.def_345 (and .def_6 .def_29))) (let ((.def_346 (ite .def_345 false .def_344))) (let ((.def_347 (and .def_5 .def_29))) (let ((.def_348 (ite .def_347 true .def_346))) (let ((.def_349 (and .def_4 .def_29))) (let ((.def_350 (ite .def_349 false .def_348))) (let ((.def_351 (and .def_3 .def_29))) (let ((.def_352 (ite .def_351 false .def_350))) (let ((.def_353 (and .def_2 .def_29))) (let ((.def_354 (ite .def_353 false .def_352))) (let ((.def_355 (and .def_1 .def_29))) (let ((.def_356 (ite .def_355 false .def_354))) (let ((.def_357 (and .def_8 .def_28))) (let ((.def_358 (ite .def_357 false .def_356))) (let ((.def_359 (and .def_7 .def_28))) (let ((.def_360 (ite .def_359 false .def_358))) (let ((.def_361 (and .def_6 .def_28))) (let ((.def_362 (ite .def_361 false .def_360))) (let ((.def_363 (and .def_5 .def_28))) (let ((.def_364 (ite .def_363 false .def_362))) (let ((.def_365 (and .def_4 .def_28))) (let ((.def_366 (ite .def_365 true .def_364))) (let ((.def_367 (and .def_3 .def_28))) (let ((.def_368 (ite .def_367 false .def_366))) (let ((.def_369 (and .def_2 .def_28))) (let ((.def_370 (ite .def_369 false .def_368))) (let ((.def_371 (and .def_1 .def_28))) (let ((.def_372 (ite .def_371 false .def_370))) (let ((.def_373 (and .def_8 .def_27))) (let ((.def_374 (ite .def_373 false .def_372))) (let ((.def_375 (and .def_7 .def_27))) (let ((.def_376 (ite .def_375 false .def_374))) (let ((.def_377 (and .def_6 .def_27))) (let ((.def_378 (ite .def_377 false .def_376))) (let ((.def_379 (and .def_5 .def_27))) (let ((.def_380 (ite .def_379 false .def_378))) (let ((.def_381 (and .def_4 .def_27))) (let ((.def_382 (ite .def_381 false .def_380))) (let ((.def_383 (and .def_3 .def_27))) (let ((.def_384 (ite .def_383 true .def_382))) (let ((.def_385 (and .def_2 .def_27))) (let ((.def_386 (ite .def_385 false .def_384))) (let ((.def_387 (and .def_1 .def_27))) (let ((.def_388 (ite .def_387 false .def_386))) (let ((.def_389 (and .def_8 .def_26))) (let ((.def_390 (ite .def_389 false .def_388))) (let ((.def_391 (and .def_7 .def_26))) (let ((.def_392 (ite .def_391 false .def_390))) (let ((.def_393 (and .def_6 .def_26))) (let ((.def_394 (ite .def_393 false .def_392))) (let ((.def_395 (and .def_5 .def_26))) (let ((.def_396 (ite .def_395 false .def_394))) (let ((.def_397 (and .def_4 .def_26))) (let ((.def_398 (ite .def_397 false .def_396))) (let ((.def_399 (and .def_3 .def_26))) (let ((.def_400 (ite .def_399 false .def_398))) (let ((.def_401 (and .def_2 .def_26))) (let ((.def_402 (ite .def_401 true .def_400))) (let ((.def_403 (and .def_1 .def_26))) (let ((.def_404 (ite .def_403 false .def_402))) (let ((.def_405 (= 0.0 .def_230))) (let ((.def_406 (and .def_405 .def_404 .def_278 .def_277 .def_269 .def_261))) (let ((.def_407 (<= t@1 t@1))) (let ((.def_408 (< (- 1.0) t@1))) (let ((.def_409 (and .def_408 .def_407))) (let ((.def_410 (=> .def_409 .def_406))) (let ((.def_411 (<= dur_make_treatment@1 15.0))) (let ((.def_412 (<= 15.0 dur_make_treatment@1))) (let ((.def_413 (and .def_412 .def_411))) (let ((.def_414 (and .def_413 .def_251 .def_410 .def_254 .def_242 .def_212 .def_193))) (let ((.def_415 (=> act_make_treatment@1 .def_414))) (let ((.def_416 (<= fluent_counter_t7@0 31.0))) (let ((.def_417 (<= 0.0 fluent_counter_t7@0))) (let ((.def_418 (<= fluent_counter_t6@0 31.0))) (let ((.def_419 (<= 0.0 fluent_counter_t6@0))) (let ((.def_420 (<= fluent_counter_t5@0 31.0))) (let ((.def_421 (<= 0.0 fluent_counter_t5@0))) (let ((.def_422 (<= fluent_counter_t4@0 31.0))) (let ((.def_423 (<= 0.0 fluent_counter_t4@0))) (let ((.def_424 (<= fluent_counter_t3@0 31.0))) (let ((.def_425 (<= 0.0 fluent_counter_t3@0))) (let ((.def_426 (<= fluent_counter_t2@0 31.0))) (let ((.def_427 (<= 0.0 fluent_counter_t2@0))) (let ((.def_428 (<= fluent_counter_t1@0 31.0))) (let ((.def_429 (<= 0.0 fluent_counter_t1@0))) (let ((.def_430 (<= fluent_counter_t0@0 31.0))) (let ((.def_431 (<= 0.0 fluent_counter_t0@0))) (let ((.def_432 (= fluent_counter_t7@0 0.0))) (let ((.def_433 (= fluent_counter_t6@0 0.0))) (let ((.def_434 (= fluent_counter_t5@0 0.0))) (let ((.def_435 (= fluent_counter_t4@0 0.0))) (let ((.def_436 (= fluent_counter_t3@0 0.0))) (let ((.def_437 (= fluent_counter_t2@0 0.0))) (let ((.def_438 (= fluent_counter_t1@0 0.0))) (let ((.def_439 (= fluent_counter_t0@0 0.0))) (let ((.def_440 (= false false))) (let ((.def_441 (= fluent_ready_i0_t7@0 false))) (let ((.def_442 (= fluent_ready_i0_t6@0 false))) (let ((.def_443 (= fluent_ready_i0_t5@0 false))) (let ((.def_444 (= fluent_ready_i0_t4@0 false))) (let ((.def_445 (= fluent_ready_i0_t3@0 false))) (let ((.def_446 (= fluent_ready_i0_t2@0 false))) (let ((.def_447 (= fluent_ready_i0_t1@0 false))) (let ((.def_448 (= fluent_started_i0_t6@0 false))) (let ((.def_449 (= fluent_started_i0_t5@0 false))) (let ((.def_450 (= fluent_started_i0_t4@0 false))) (let ((.def_451 (= fluent_started_i0_t3@0 false))) (let ((.def_452 (= fluent_started_i0_t2@0 false))) (let ((.def_453 (= fluent_started_i0_t1@0 false))) (let ((.def_454 (= fluent_started_i0_t0@0 false))) (let ((.def_455 (= fluent_treated_i0_t7@0 false))) (let ((.def_456 (= fluent_treated_i0_t6@0 false))) (let ((.def_457 (= fluent_treated_i0_t5@0 false))) (let ((.def_458 (= fluent_treated_i0_t4@0 false))) (let ((.def_459 (= fluent_treated_i0_t3@0 false))) (let ((.def_460 (= fluent_treated_i0_t2@0 false))) (let ((.def_461 (= fluent_treated_i0_t1@0 false))) (let ((.def_462 (= fluent_treated_i0_t0@0 false))) (let ((.def_463 (= fluent_busy_@0 false))) (let ((.def_464 (= fluent_ready_i0_t0@0 true))) (let ((.def_465 (= fluent_started_i0_t7@0 true))) (let ((.def_466 (= true true))) (let ((.def_467 (= 0.0 0.0))) (let ((.def_468 (and .def_467 .def_466 .def_466 .def_466 .def_466 .def_466 .def_466 .def_466 .def_465 .def_464 .def_463 .def_462 .def_461 .def_460 .def_459 .def_458 .def_457 .def_456 .def_455 .def_454 .def_453 .def_452 .def_451 .def_450 .def_449 .def_448 .def_447 .def_446 .def_445 .def_444 .def_443 .def_442 .def_441 .def_440 .def_440 .def_440 .def_440 .def_440 .def_440 .def_440 .def_440 .def_440 .def_440 .def_440 .def_440 .def_440 .def_440 .def_440 .def_440 .def_440 .def_440 .def_440 .def_440 .def_440 .def_440 .def_440 .def_440 .def_440 .def_440 .def_440 .def_440 .def_440 .def_440 .def_440 .def_440 .def_440 .def_440 .def_440 .def_440 .def_440 .def_440 .def_440 .def_440 .def_440 .def_440 .def_440 .def_440 .def_440 .def_440 .def_440 .def_440 .def_440 .def_440 .def_440 .def_440 .def_440 .def_440 .def_440 .def_440 .def_440 .def_439 .def_438 .def_437 .def_436 .def_435 .def_434 .def_433 .def_432 .def_431 .def_430 .def_429 .def_428 .def_427 .def_426 .def_425 .def_424 .def_423 .def_422 .def_421 .def_420 .def_419 .def_418 .def_417 .def_416))) (let ((.def_469 (and .def_468 .def_415 .def_176 true true .def_175 .def_34 .def_25 .def_24 .def_23 .def_22 .def_21 .def_20 .def_19 .def_18 .def_17 .def_16 .def_15 .def_14 .def_13 .def_12 .def_11 .def_10 .def_9 .def_0 true))) .def_469)))))))))))))))))))))))))))))))))))))))))))))))))))))))))))))))))))))))))))))))))))))))))))))))))))))))))))))))))))))))))))))))))))))))))))))))))))))))))))))))))))))))))))))))))))))))))))))))))))))))))))))))))))))))))))))))))))))))))))))))))))))))))))))))))))))))))))))))))))))))))))))))))))))))))))))))))))))))))))))))))))))))))))))))))))))))))))))))))))))))))))))))))))))))))))))))))))))))))))))))))))))))))))))))))))))))))))))))))))))))))))))))))))))))))))))))))))))))
(check-sat)
